nN = 8;
nR = 48;
nH = 2;

a = [[25, 20, 25, 15, 21, 17, 23, 15, 21, 16, 17, 23, 23, 17, 21, 20, 19, 17, 21, 16, 17, 25, 20, 23, 20, 16, 25, 19, 23, 20, 15, 24, 17, 22, 19, 16, 19, 19, 15, 25, 18, 15, 20, 17, 19, 17, 21, 21], [16, 15, 21, 16, 24, 19, 19, 21, 20, 18, 25, 15, 15, 20, 18, 23, 15, 23, 18, 20, 15, 16, 21, 18, 16, 25, 19, 19, 20, 24, 15, 16, 23, 23, 16, 20, 20, 23, 20, 18, 25, 18, 21, 15, 16, 15, 20, 15], [25, 20, 21, 22, 23, 21, 22, 22, 23, 16, 18, 24, 20, 24, 21, 15, 15, 16, 24, 24, 22, 18, 25, 25, 17, 23, 15, 22, 21, 20, 19, 16, 15, 16, 24, 19, 18, 21, 19, 18, 20, 18, 21, 21, 22, 21, 25, 21], [18, 16, 23, 16, 15, 18, 24, 23, 17, 17, 18, 25, 19, 25, 22, 19, 19, 17, 20, 19, 16, 19, 22, 25, 22, 23, 25, 22, 17, 23, 19, 24, 17, 23, 18, 18, 16, 24, 24, 22, 20, 22, 21, 16, 18, 18, 16, 20], [23, 17, 23, 20, 19, 20, 17, 16, 19, 24, 15, 23, 18, 16, 23, 15, 16, 16, 15, 16, 25, 15, 15, 15, 15, 24, 22, 17, 24, 20, 20, 17, 16, 17, 25, 25, 24, 18, 24, 18, 15, 21, 16, 21, 15, 21, 24, 25], [25, 24, 23, 17, 15, 15, 19, 16, 18, 25, 17, 18, 17, 20, 23, 18, 20, 22, 25, 25, 22, 20, 16, 25, 22, 24, 18, 15, 24, 24, 24, 25, 17, 20, 23, 20, 18, 23, 20, 21, 15, 23, 16, 24, 25, 21, 16, 17], [25, 23, 20, 15, 24, 22, 22, 23, 22, 21, 24, 23, 16, 24, 23, 16, 17, 23, 15, 20, 15, 17, 21, 19, 23, 19, 19, 20, 21, 17, 19, 18, 22, 17, 23, 15, 21, 21, 20, 15, 22, 24, 25, 22, 21, 17, 20, 23], [25, 20, 20, 19, 16, 17, 25, 24, 21, 25, 25, 20, 22, 15, 21, 17, 24, 17, 24, 15, 17, 20, 21, 22, 24, 19, 22, 24, 22, 23, 21, 16, 22, 15, 15, 15, 20, 22, 19, 22, 23, 24, 16, 23, 16, 25, 17, 25]];
c = [[[0, 0, 0, 0, 0, 0, 0, 0, 0, 0, 0, 0, 0, 0, 0, 0, 0, 0, 0, 0, 0, 0, 0, 0, 0, 0, 0, 0, 0, 0, 0, 0, 0, 0, 0, 0, 0, 0, 0, 0, 0, 0, 0, 0, 0, 0, 0, 0], [43, 32, 43, 41, 45, 33, 40, 34, 40, 41, 37, 43, 36, 35, 43, 33, 42, 41, 35, 49, 40, 35, 48, 41, 33, 31, 45, 39, 44, 49, 50, 49, 50, 49, 32, 45, 31, 35, 33, 36, 44, 31, 38, 32, 39, 38, 33, 44], [31, 41, 42, 35, 42, 45, 45, 32, 40, 42, 38, 47, 40, 43, 35, 34, 37, 39, 38, 50, 31, 40, 36, 49, 38, 38, 34, 40, 35, 41, 34, 48, 30, 42, 41, 40, 41, 48, 34, 31, 41, 39, 47, 35, 39, 39, 35, 34], [34, 43, 34, 35, 34, 36, 37, 30, 47, 33, 35, 46, 36, 40, 38, 43, 34, 36, 39, 40, 41, 50, 48, 49, 45, 37, 50, 42, 48, 46, 44, 38, 31, 42, 49, 31, 39, 42, 47, 31, 32, 38, 35, 45, 44, 50, 32, 34], [34, 40, 42, 48, 39, 49, 48, 30, 39, 44, 47, 43, 32, 36, 45, 49, 50, 49, 49, 44, 30, 37, 42, 38, 49, 49, 32, 47, 36, 42, 46, 41, 34, 40, 45, 34, 42, 45, 49, 32, 30, 33, 36, 39, 50, 41, 30, 35], [38, 49, 30, 32, 45, 36, 49, 34, 36, 33, 49, 35, 33, 35, 50, 44, 41, 44, 50, 37, 48, 43, 49, 49, 30, 40, 32, 33, 37, 33, 49, 39, 50, 50, 50, 38, 37, 42, 41, 37, 43, 47, 41, 42, 46, 43, 33, 49], [44, 42, 33, 34, 31, 47, 38, 46, 50, 48, 47, 42, 38, 49, 38, 32, 40, 35, 32, 48, 32, 36, 32, 48, 36, 39, 35, 48, 49, 44, 36, 34, 46, 43, 30, 42, 46, 50, 38, 39, 39, 31, 50, 38, 34, 47, 41, 37], [34, 46, 38, 39, 32, 36, 33, 35, 32, 38, 48, 43, 36, 47, 40, 46, 47, 37, 35, 33, 50, 47, 41, 35, 37, 32, 49, 43, 43, 46, 43, 39, 38, 42, 35, 30, 46, 48, 50, 50, 45, 50, 32, 44, 31, 43, 49, 33]], [[0, 0, 0, 0, 0, 0, 0, 0, 0, 0, 0, 0, 0, 0, 0, 0, 0, 0, 0, 0, 0, 0, 0, 0, 0, 0, 0, 0, 0, 0, 0, 0, 0, 0, 0, 0, 0, 0, 0, 0, 0, 0, 0, 0, 0, 0, 0, 0], [0, 0, 0, 0, 0, 0, 0, 0, 0, 0, 0, 0, 0, 0, 0, 0, 0, 0, 0, 0, 0, 0, 0, 0, 0, 0, 0, 0, 0, 0, 0, 0, 0, 0, 0, 0, 0, 0, 0, 0, 0, 0, 0, 0, 0, 0, 0, 0], [45, 31, 38, 43, 38, 40, 46, 43, 42, 39, 32, 38, 50, 37, 31, 39, 32, 41, 32, 49, 50, 44, 47, 30, 50, 41, 43, 41, 43, 43, 31, 40, 43, 50, 44, 47, 50, 32, 37, 40, 48, 32, 41, 43, 31, 47, 34, 36], [38, 48, 46, 37, 38, 38, 43, 49, 43, 32, 33, 49, 47, 43, 40, 33, 37, 49, 44, 34, 36, 41, 46, 30, 45, 39, 31, 46, 30, 31, 43, 39, 50, 50, 42, 48, 47, 36, 30, 42, 32, 40, 36, 45, 39, 45, 34, 46], [36, 48, 33, 37, 37, 37, 41, 34, 49, 49, 44, 34, 30, 50, 33, 36, 39, 30, 48, 44, 43, 48, 46, 38, 45, 31, 38, 30, 40, 37, 36, 40, 45, 43, 32, 35, 34, 41, 46, 50, 45, 37, 37, 49, 39, 46, 43, 37], [36, 41, 38, 45, 30, 42, 36, 43, 42, 50, 33, 33, 45, 33, 32, 35, 32, 38, 46, 47, 30, 36, 49, 47, 43, 36, 35, 38, 44, 47, 38, 30, 40, 44, 36, 47, 30, 39, 36, 48, 33, 39, 40, 36, 35, 50, 35, 39], [44, 32, 34, 47, 47, 38, 37, 30, 45, 43, 44, 30, 49, 38, 45, 43, 36, 41, 43, 44, 45, 37, 49, 38, 50, 35, 35, 43, 33, 40, 37, 32, 37, 30, 40, 49, 44, 36, 49, 38, 39, 45, 35, 48, 32, 33, 30, 31], [41, 49, 38, 38, 40, 33, 30, 32, 31, 39, 45, 37, 30, 30, 43, 45, 33, 34, 33, 47, 34, 38, 37, 47, 40, 36, 30, 42, 40, 45, 50, 48, 43, 34, 49, 39, 31, 44, 40, 30, 33, 47, 40, 41, 37, 33, 31, 37]], [[0, 0, 0, 0, 0, 0, 0, 0, 0, 0, 0, 0, 0, 0, 0, 0, 0, 0, 0, 0, 0, 0, 0, 0, 0, 0, 0, 0, 0, 0, 0, 0, 0, 0, 0, 0, 0, 0, 0, 0, 0, 0, 0, 0, 0, 0, 0, 0], [0, 0, 0, 0, 0, 0, 0, 0, 0, 0, 0, 0, 0, 0, 0, 0, 0, 0, 0, 0, 0, 0, 0, 0, 0, 0, 0, 0, 0, 0, 0, 0, 0, 0, 0, 0, 0, 0, 0, 0, 0, 0, 0, 0, 0, 0, 0, 0], [0, 0, 0, 0, 0, 0, 0, 0, 0, 0, 0, 0, 0, 0, 0, 0, 0, 0, 0, 0, 0, 0, 0, 0, 0, 0, 0, 0, 0, 0, 0, 0, 0, 0, 0, 0, 0, 0, 0, 0, 0, 0, 0, 0, 0, 0, 0, 0], [48, 30, 41, 48, 38, 38, 48, 40, 37, 39, 38, 40, 44, 46, 34, 40, 41, 35, 49, 47, 34, 33, 37, 35, 42, 40, 46, 42, 50, 44, 31, 45, 35, 36, 35, 41, 45, 39, 30, 44, 45, 34, 34, 47, 37, 31, 41, 44], [48, 37, 48, 43, 37, 34, 34, 36, 32, 39, 30, 39, 33, 44, 37, 31, 32, 39, 32, 34, 37, 38, 31, 31, 31, 46, 38, 34, 47, 32, 33, 43, 44, 49, 37, 44, 47, 43, 39, 40, 47, 41, 48, 49, 30, 38, 41, 38], [48, 46, 36, 42, 46, 36, 39, 34, 47, 48, 36, 39, 31, 35, 37, 50, 36, 46, 46, 35, 39, 40, 43, 37, 32, 41, 48, 47, 40, 32, 41, 32, 40, 32, 39, 49, 35, 48, 42, 39, 30, 32, 49, 38, 37, 42, 49, 50], [41, 43, 46, 34, 34, 40, 48, 49, 49, 32, 45, 33, 42, 35, 43, 33, 40, 31, 48, 31, 41, 48, 38, 47, 47, 49, 50, 44, 41, 32, 44, 37, 38, 48, 31, 37, 37, 42, 49, 40, 31, 32, 43, 35, 34, 41, 43, 48], [31, 46, 34, 44, 30, 42, 31, 43, 44, 42, 32, 49, 30, 44, 39, 41, 38, 44, 38, 50, 32, 49, 33, 42, 39, 33, 34, 39, 30, 34, 38, 34, 42, 42, 50, 30, 36, 38, 43, 40, 40, 35, 35, 49, 43, 48, 39, 36]], [[0, 0, 0, 0, 0, 0, 0, 0, 0, 0, 0, 0, 0, 0, 0, 0, 0, 0, 0, 0, 0, 0, 0, 0, 0, 0, 0, 0, 0, 0, 0, 0, 0, 0, 0, 0, 0, 0, 0, 0, 0, 0, 0, 0, 0, 0, 0, 0], [0, 0, 0, 0, 0, 0, 0, 0, 0, 0, 0, 0, 0, 0, 0, 0, 0, 0, 0, 0, 0, 0, 0, 0, 0, 0, 0, 0, 0, 0, 0, 0, 0, 0, 0, 0, 0, 0, 0, 0, 0, 0, 0, 0, 0, 0, 0, 0], [0, 0, 0, 0, 0, 0, 0, 0, 0, 0, 0, 0, 0, 0, 0, 0, 0, 0, 0, 0, 0, 0, 0, 0, 0, 0, 0, 0, 0, 0, 0, 0, 0, 0, 0, 0, 0, 0, 0, 0, 0, 0, 0, 0, 0, 0, 0, 0], [0, 0, 0, 0, 0, 0, 0, 0, 0, 0, 0, 0, 0, 0, 0, 0, 0, 0, 0, 0, 0, 0, 0, 0, 0, 0, 0, 0, 0, 0, 0, 0, 0, 0, 0, 0, 0, 0, 0, 0, 0, 0, 0, 0, 0, 0, 0, 0], [34, 41, 33, 43, 41, 47, 50, 32, 47, 50, 43, 45, 46, 37, 47, 47, 35, 50, 32, 30, 35, 44, 39, 36, 30, 43, 34, 46, 35, 43, 43, 46, 47, 47, 36, 32, 44, 43, 40, 30, 37, 48, 44, 44, 42, 41, 50, 30], [33, 33, 37, 33, 33, 44, 41, 44, 30, 33, 30, 48, 36, 46, 33, 33, 49, 34, 34, 36, 37, 38, 30, 42, 44, 30, 45, 47, 43, 32, 38, 32, 32, 34, 38, 45, 30, 37, 36, 50, 30, 34, 32, 44, 39, 41, 43, 37], [35, 49, 30, 30, 50, 46, 48, 47, 38, 49, 41, 46, 39, 45, 30, 36, 42, 43, 34, 41, 46, 30, 36, 37, 45, 36, 48, 45, 45, 50, 48, 44, 36, 46, 43, 43, 46, 45, 49, 47, 48, 42, 35, 40, 40, 43, 41, 46], [47, 30, 34, 42, 33, 34, 34, 34, 46, 30, 36, 44, 37, 37, 40, 31, 44, 37, 45, 40, 33, 44, 36, 35, 32, 39, 40, 49, 31, 37, 43, 37, 33, 40, 33, 48, 35, 47, 41, 46, 31, 38, 41, 30, 40, 39, 34, 32]], [[0, 0, 0, 0, 0, 0, 0, 0, 0, 0, 0, 0, 0, 0, 0, 0, 0, 0, 0, 0, 0, 0, 0, 0, 0, 0, 0, 0, 0, 0, 0, 0, 0, 0, 0, 0, 0, 0, 0, 0, 0, 0, 0, 0, 0, 0, 0, 0], [0, 0, 0, 0, 0, 0, 0, 0, 0, 0, 0, 0, 0, 0, 0, 0, 0, 0, 0, 0, 0, 0, 0, 0, 0, 0, 0, 0, 0, 0, 0, 0, 0, 0, 0, 0, 0, 0, 0, 0, 0, 0, 0, 0, 0, 0, 0, 0], [0, 0, 0, 0, 0, 0, 0, 0, 0, 0, 0, 0, 0, 0, 0, 0, 0, 0, 0, 0, 0, 0, 0, 0, 0, 0, 0, 0, 0, 0, 0, 0, 0, 0, 0, 0, 0, 0, 0, 0, 0, 0, 0, 0, 0, 0, 0, 0], [0, 0, 0, 0, 0, 0, 0, 0, 0, 0, 0, 0, 0, 0, 0, 0, 0, 0, 0, 0, 0, 0, 0, 0, 0, 0, 0, 0, 0, 0, 0, 0, 0, 0, 0, 0, 0, 0, 0, 0, 0, 0, 0, 0, 0, 0, 0, 0], [0, 0, 0, 0, 0, 0, 0, 0, 0, 0, 0, 0, 0, 0, 0, 0, 0, 0, 0, 0, 0, 0, 0, 0, 0, 0, 0, 0, 0, 0, 0, 0, 0, 0, 0, 0, 0, 0, 0, 0, 0, 0, 0, 0, 0, 0, 0, 0], [39, 43, 36, 33, 38, 47, 43, 38, 39, 34, 42, 50, 30, 41, 32, 36, 38, 47, 48, 34, 37, 37, 41, 37, 37, 47, 36, 44, 42, 32, 37, 37, 35, 49, 40, 46, 36, 37, 38, 30, 35, 34, 33, 35, 37, 30, 35, 30], [35, 38, 32, 42, 38, 46, 50, 50, 31, 48, 39, 44, 47, 39, 30, 30, 43, 40, 44, 38, 39, 35, 42, 47, 42, 32, 49, 44, 44, 44, 47, 44, 49, 41, 36, 48, 33, 38, 41, 31, 31, 46, 43, 38, 42, 50, 30, 36], [46, 45, 38, 36, 32, 45, 48, 42, 41, 31, 46, 42, 50, 47, 37, 41, 34, 31, 30, 40, 39, 47, 31, 37, 43, 39, 46, 38, 40, 39, 35, 40, 40, 43, 45, 30, 34, 37, 48, 40, 31, 48, 42, 34, 46, 43, 47, 44]], [[0, 0, 0, 0, 0, 0, 0, 0, 0, 0, 0, 0, 0, 0, 0, 0, 0, 0, 0, 0, 0, 0, 0, 0, 0, 0, 0, 0, 0, 0, 0, 0, 0, 0, 0, 0, 0, 0, 0, 0, 0, 0, 0, 0, 0, 0, 0, 0], [0, 0, 0, 0, 0, 0, 0, 0, 0, 0, 0, 0, 0, 0, 0, 0, 0, 0, 0, 0, 0, 0, 0, 0, 0, 0, 0, 0, 0, 0, 0, 0, 0, 0, 0, 0, 0, 0, 0, 0, 0, 0, 0, 0, 0, 0, 0, 0], [0, 0, 0, 0, 0, 0, 0, 0, 0, 0, 0, 0, 0, 0, 0, 0, 0, 0, 0, 0, 0, 0, 0, 0, 0, 0, 0, 0, 0, 0, 0, 0, 0, 0, 0, 0, 0, 0, 0, 0, 0, 0, 0, 0, 0, 0, 0, 0], [0, 0, 0, 0, 0, 0, 0, 0, 0, 0, 0, 0, 0, 0, 0, 0, 0, 0, 0, 0, 0, 0, 0, 0, 0, 0, 0, 0, 0, 0, 0, 0, 0, 0, 0, 0, 0, 0, 0, 0, 0, 0, 0, 0, 0, 0, 0, 0], [0, 0, 0, 0, 0, 0, 0, 0, 0, 0, 0, 0, 0, 0, 0, 0, 0, 0, 0, 0, 0, 0, 0, 0, 0, 0, 0, 0, 0, 0, 0, 0, 0, 0, 0, 0, 0, 0, 0, 0, 0, 0, 0, 0, 0, 0, 0, 0], [0, 0, 0, 0, 0, 0, 0, 0, 0, 0, 0, 0, 0, 0, 0, 0, 0, 0, 0, 0, 0, 0, 0, 0, 0, 0, 0, 0, 0, 0, 0, 0, 0, 0, 0, 0, 0, 0, 0, 0, 0, 0, 0, 0, 0, 0, 0, 0], [30, 31, 49, 36, 44, 37, 30, 31, 48, 43, 35, 43, 47, 49, 44, 35, 30, 35, 34, 40, 43, 48, 41, 45, 45, 38, 46, 43, 33, 50, 50, 34, 44, 48, 48, 35, 33, 49, 39, 50, 30, 35, 47, 41, 49, 49, 34, 41], [35, 37, 47, 46, 34, 33, 48, 44, 34, 35, 39, 34, 42, 35, 46, 36, 49, 37, 45, 45, 45, 43, 41, 35, 32, 50, 39, 49, 41, 36, 33, 30, 45, 45, 46, 33, 46, 43, 36, 39, 35, 41, 41, 45, 40, 33, 32, 40]], [[0, 0, 0, 0, 0, 0, 0, 0, 0, 0, 0, 0, 0, 0, 0, 0, 0, 0, 0, 0, 0, 0, 0, 0, 0, 0, 0, 0, 0, 0, 0, 0, 0, 0, 0, 0, 0, 0, 0, 0, 0, 0, 0, 0, 0, 0, 0, 0], [0, 0, 0, 0, 0, 0, 0, 0, 0, 0, 0, 0, 0, 0, 0, 0, 0, 0, 0, 0, 0, 0, 0, 0, 0, 0, 0, 0, 0, 0, 0, 0, 0, 0, 0, 0, 0, 0, 0, 0, 0, 0, 0, 0, 0, 0, 0, 0], [0, 0, 0, 0, 0, 0, 0, 0, 0, 0, 0, 0, 0, 0, 0, 0, 0, 0, 0, 0, 0, 0, 0, 0, 0, 0, 0, 0, 0, 0, 0, 0, 0, 0, 0, 0, 0, 0, 0, 0, 0, 0, 0, 0, 0, 0, 0, 0], [0, 0, 0, 0, 0, 0, 0, 0, 0, 0, 0, 0, 0, 0, 0, 0, 0, 0, 0, 0, 0, 0, 0, 0, 0, 0, 0, 0, 0, 0, 0, 0, 0, 0, 0, 0, 0, 0, 0, 0, 0, 0, 0, 0, 0, 0, 0, 0], [0, 0, 0, 0, 0, 0, 0, 0, 0, 0, 0, 0, 0, 0, 0, 0, 0, 0, 0, 0, 0, 0, 0, 0, 0, 0, 0, 0, 0, 0, 0, 0, 0, 0, 0, 0, 0, 0, 0, 0, 0, 0, 0, 0, 0, 0, 0, 0], [0, 0, 0, 0, 0, 0, 0, 0, 0, 0, 0, 0, 0, 0, 0, 0, 0, 0, 0, 0, 0, 0, 0, 0, 0, 0, 0, 0, 0, 0, 0, 0, 0, 0, 0, 0, 0, 0, 0, 0, 0, 0, 0, 0, 0, 0, 0, 0], [0, 0, 0, 0, 0, 0, 0, 0, 0, 0, 0, 0, 0, 0, 0, 0, 0, 0, 0, 0, 0, 0, 0, 0, 0, 0, 0, 0, 0, 0, 0, 0, 0, 0, 0, 0, 0, 0, 0, 0, 0, 0, 0, 0, 0, 0, 0, 0], [48, 47, 42, 39, 50, 46, 30, 45, 48, 50, 44, 48, 45, 32, 36, 45, 30, 38, 36, 41, 44, 34, 49, 48, 36, 48, 46, 49, 33, 32, 36, 41, 35, 49, 35, 46, 30, 47, 42, 44, 33, 34, 45, 35, 33, 50, 35, 39]], [[0, 0, 0, 0, 0, 0, 0, 0, 0, 0, 0, 0, 0, 0, 0, 0, 0, 0, 0, 0, 0, 0, 0, 0, 0, 0, 0, 0, 0, 0, 0, 0, 0, 0, 0, 0, 0, 0, 0, 0, 0, 0, 0, 0, 0, 0, 0, 0], [0, 0, 0, 0, 0, 0, 0, 0, 0, 0, 0, 0, 0, 0, 0, 0, 0, 0, 0, 0, 0, 0, 0, 0, 0, 0, 0, 0, 0, 0, 0, 0, 0, 0, 0, 0, 0, 0, 0, 0, 0, 0, 0, 0, 0, 0, 0, 0], [0, 0, 0, 0, 0, 0, 0, 0, 0, 0, 0, 0, 0, 0, 0, 0, 0, 0, 0, 0, 0, 0, 0, 0, 0, 0, 0, 0, 0, 0, 0, 0, 0, 0, 0, 0, 0, 0, 0, 0, 0, 0, 0, 0, 0, 0, 0, 0], [0, 0, 0, 0, 0, 0, 0, 0, 0, 0, 0, 0, 0, 0, 0, 0, 0, 0, 0, 0, 0, 0, 0, 0, 0, 0, 0, 0, 0, 0, 0, 0, 0, 0, 0, 0, 0, 0, 0, 0, 0, 0, 0, 0, 0, 0, 0, 0], [0, 0, 0, 0, 0, 0, 0, 0, 0, 0, 0, 0, 0, 0, 0, 0, 0, 0, 0, 0, 0, 0, 0, 0, 0, 0, 0, 0, 0, 0, 0, 0, 0, 0, 0, 0, 0, 0, 0, 0, 0, 0, 0, 0, 0, 0, 0, 0], [0, 0, 0, 0, 0, 0, 0, 0, 0, 0, 0, 0, 0, 0, 0, 0, 0, 0, 0, 0, 0, 0, 0, 0, 0, 0, 0, 0, 0, 0, 0, 0, 0, 0, 0, 0, 0, 0, 0, 0, 0, 0, 0, 0, 0, 0, 0, 0], [0, 0, 0, 0, 0, 0, 0, 0, 0, 0, 0, 0, 0, 0, 0, 0, 0, 0, 0, 0, 0, 0, 0, 0, 0, 0, 0, 0, 0, 0, 0, 0, 0, 0, 0, 0, 0, 0, 0, 0, 0, 0, 0, 0, 0, 0, 0, 0], [0, 0, 0, 0, 0, 0, 0, 0, 0, 0, 0, 0, 0, 0, 0, 0, 0, 0, 0, 0, 0, 0, 0, 0, 0, 0, 0, 0, 0, 0, 0, 0, 0, 0, 0, 0, 0, 0, 0, 0, 0, 0, 0, 0, 0, 0, 0, 0]]];

q = [[[12, 122], [9, 125], [15, 107], [14, 118], [8, 118], [15, 108], [5, 112], [9, 114], [7, 115], [7, 113], [10, 125], [6, 109], [13, 115], [12, 117], [15, 107], [10, 124], [11, 116], [9, 122], [11, 122], [16, 112], [15, 121], [14, 111], [5, 119], [16, 107], [7, 113], [5, 112], [11, 124], [16, 114], [15, 120], [6, 122], [11, 122], [9, 124], [7, 118], [8, 108], [6, 118], [10, 121], [7, 115], [10, 111], [13, 108], [10, 125], [10, 110], [13, 121], [7, 124], [12, 105], [14, 118], [5, 114], [5, 122], [6, 114]], [[16, 121], [16, 120], [6, 110], [9, 114], [16, 116], [7, 106], [9, 119], [5, 112], [11, 111], [9, 121], [11, 125], [9, 105], [13, 121], [5, 120], [16, 106], [16, 123], [9, 108], [8, 122], [11, 112], [13, 106], [7, 118], [10, 124], [7, 110], [15, 125], [11, 109], [5, 117], [10, 117], [14, 105], [13, 111], [13, 111], [11, 125], [7, 106], [11, 124], [14, 113], [11, 109], [16, 105], [14, 111], [9, 114], [9, 110], [9, 124], [15, 106], [7, 121], [11, 109], [15, 110], [5, 123], [6, 123], [10, 115], [7, 105]], [[13, 123], [12, 114], [13, 107], [13, 116], [10, 117], [9, 108], [7, 123], [7, 110], [7, 121], [12, 113], [5, 119], [15, 108], [12, 116], [6, 125], [10, 115], [12, 125], [13, 112], [8, 125], [12, 121], [7, 105], [12, 122], [9, 112], [9, 124], [15, 105], [5, 118], [12, 107], [12, 106], [5, 109], [16, 113], [16, 116], [15, 122], [14, 111], [11, 111], [5, 123], [13, 109], [6, 119], [11, 113], [13, 118], [6, 105], [14, 117], [13, 123], [7, 114], [11, 113], [10, 125], [9, 111], [16, 107], [10, 111], [10, 107]], [[8, 116], [13, 110], [6, 115], [7, 109], [11, 119], [10, 122], [11, 107], [8, 110], [9, 111], [13, 112], [9, 125], [13, 119], [16, 121], [8, 108], [13, 106], [12, 125], [16, 112], [12, 108], [16, 121], [7, 108], [16, 119], [15, 110], [12, 124], [5, 113], [12, 107], [13, 109], [6, 122], [10, 122], [15, 105], [11, 115], [7, 113], [10, 121], [15, 113], [9, 107], [15, 109], [12, 111], [13, 115], [15, 125], [5, 124], [6, 116], [14, 110], [9, 111], [15, 114], [14, 114], [10, 117], [13, 125], [12, 115], [8, 105]], [[9, 107], [11, 114], [12, 111], [9, 122], [14, 108], [10, 116], [15, 120], [9, 107], [7, 110], [16, 108], [9, 118], [7, 118], [13, 108], [10, 113], [6, 121], [14, 121], [12, 111], [16, 123], [8, 123], [14, 120], [11, 108], [9, 112], [8, 118], [13, 107], [7, 123], [16, 124], [13, 110], [11, 124], [10, 119], [6, 119], [8, 118], [5, 115], [12, 123], [11, 112], [6, 122], [14, 118], [14, 118], [16, 122], [9, 122], [15, 123], [14, 120], [11, 111], [9, 106], [7, 112], [6, 107], [9, 108], [14, 118], [9, 113]], [[5, 125], [7, 124], [10, 107], [10, 117], [15, 120], [15, 112], [14, 107], [11, 109], [10, 106], [12, 122], [5, 105], [8, 123], [8, 106], [12, 123], [15, 114], [12, 117], [12, 117], [16, 116], [9, 115], [9, 125], [5, 105], [15, 114], [6, 120], [11, 120], [11, 121], [11, 124], [8, 112], [5, 111], [14, 109], [6, 119], [10, 114], [14, 116], [16, 116], [14, 121], [15, 109], [14, 113], [13, 113], [15, 113], [5, 115], [16, 113], [6, 118], [11, 121], [8, 116], [10, 108], [5, 121], [6, 111], [7, 105], [7, 125]], [[13, 124], [12, 105], [9, 111], [10, 118], [15, 108], [9, 124], [6, 112], [15, 109], [14, 115], [10, 119], [9, 112], [10, 116], [9, 125], [10, 125], [12, 124], [8, 111], [10, 109], [10, 106], [13, 111], [5, 112], [5, 122], [6, 125], [8, 115], [15, 120], [8, 119], [14, 105], [8, 116], [14, 106], [8, 122], [9, 119], [13, 117], [5, 106], [7, 114], [7, 124], [10, 111], [12, 124], [10, 121], [8, 124], [13, 115], [6, 123], [10, 105], [9, 120], [12, 110], [12, 120], [11, 121], [10, 108], [10, 112], [16, 107]], [[16, 116], [15, 114], [5, 114], [12, 115], [11, 115], [13, 105], [11, 114], [9, 124], [6, 119], [7, 119], [10, 120], [9, 117], [13, 111], [9, 110], [14, 106], [5, 125], [9, 123], [11, 107], [6, 112], [7, 120], [5, 110], [10, 112], [16, 107], [5, 105], [8, 110], [10, 117], [15, 106], [7, 124], [5, 113], [16, 106], [7, 114], [14, 117], [11, 124], [16, 124], [7, 111], [6, 105], [11, 112], [14, 109], [16, 110], [5, 109], [6, 117], [8, 111], [11, 108], [12, 112], [12, 122], [10, 120], [14, 124], [11, 111]]];
Q = [[48, 559], [50, 550], [50, 552], [53, 550], [51, 556], [49, 554], [48, 555], [48, 548]];
